n = 123;
rows = 327;
supports = [|
  {1},{1},
 |{1},22..103,
 |{2},{2},
 |{2},23..104,
 |{3},{3},
 |{3},24..105,
 |{4},{4},
 |{4},25..106,
 |{5},{5},
 |{5},26..107,
 |{6},{6},
 |{6},27..108,
 |{7},{7},
 |{7},28..109,
 |{8},{8},
 |{8},29..110,
 |{9},{9},
 |{9},30..111,
 |{10},{10},
 |{10},31..112,
 |{11},{11},
 |{11},32..113,
 |{12},{12},
 |{12},33..114,
 |{13},{13},
 |{13},34..115,
 |{14},{14},
 |{14},35..116,
 |{15},{15},
 |{15},36..117,
 |{16},{16},
 |{16},37..118,
 |{17},{17},
 |{17},38..119,
 |{18},{18},
 |{18},39..120,
 |{19},{19},
 |{19},40..121,
 |{20},{20},
 |{20},41..122,
 |{21},{21},
 |{21},42..123,
 |{22},{22},
 |{22},{1},
 |{22},43..123,
 |{23},{23},
 |{23},1..2,
 |{23},44..123,
 |{24},{24},
 |{24},1..3,
 |{24},45..123,
 |{25},{25},
 |{25},1..4,
 |{25},46..123,
 |{26},{26},
 |{26},1..5,
 |{26},47..123,
 |{27},{27},
 |{27},1..6,
 |{27},48..123,
 |{28},{28},
 |{28},1..7,
 |{28},49..123,
 |{29},{29},
 |{29},1..8,
 |{29},50..123,
 |{30},{30},
 |{30},1..9,
 |{30},51..123,
 |{31},{31},
 |{31},1..10,
 |{31},52..123,
 |{32},{32},
 |{32},1..11,
 |{32},53..123,
 |{33},{33},
 |{33},1..12,
 |{33},54..123,
 |{34},{34},
 |{34},1..13,
 |{34},55..123,
 |{35},{35},
 |{35},1..14,
 |{35},56..123,
 |{36},{36},
 |{36},1..15,
 |{36},57..123,
 |{37},{37},
 |{37},1..16,
 |{37},58..123,
 |{38},{38},
 |{38},1..17,
 |{38},59..123,
 |{39},{39},
 |{39},1..18,
 |{39},60..123,
 |{40},{40},
 |{40},1..19,
 |{40},61..123,
 |{41},{41},
 |{41},1..20,
 |{41},62..123,
 |{42},{42},
 |{42},1..21,
 |{42},63..123,
 |{43},{43},
 |{43},1..22,
 |{43},64..123,
 |{44},{44},
 |{44},1..23,
 |{44},65..123,
 |{45},{45},
 |{45},1..24,
 |{45},66..123,
 |{46},{46},
 |{46},1..25,
 |{46},67..123,
 |{47},{47},
 |{47},1..26,
 |{47},68..123,
 |{48},{48},
 |{48},1..27,
 |{48},69..123,
 |{49},{49},
 |{49},1..28,
 |{49},70..123,
 |{50},{50},
 |{50},1..29,
 |{50},71..123,
 |{51},{51},
 |{51},1..30,
 |{51},72..123,
 |{52},{52},
 |{52},1..31,
 |{52},73..123,
 |{53},{53},
 |{53},1..32,
 |{53},74..123,
 |{54},{54},
 |{54},1..33,
 |{54},75..123,
 |{55},{55},
 |{55},1..34,
 |{55},76..123,
 |{56},{56},
 |{56},1..35,
 |{56},77..123,
 |{57},{57},
 |{57},1..36,
 |{57},78..123,
 |{58},{58},
 |{58},1..37,
 |{58},79..123,
 |{59},{59},
 |{59},1..38,
 |{59},80..123,
 |{60},{60},
 |{60},1..39,
 |{60},81..123,
 |{61},{61},
 |{61},1..40,
 |{61},82..123,
 |{62},{62},
 |{62},1..41,
 |{62},83..123,
 |{63},{63},
 |{63},1..42,
 |{63},84..123,
 |{64},{64},
 |{64},1..43,
 |{64},85..123,
 |{65},{65},
 |{65},1..44,
 |{65},86..123,
 |{66},{66},
 |{66},1..45,
 |{66},87..123,
 |{67},{67},
 |{67},1..46,
 |{67},88..123,
 |{68},{68},
 |{68},1..47,
 |{68},89..123,
 |{69},{69},
 |{69},1..48,
 |{69},90..123,
 |{70},{70},
 |{70},1..49,
 |{70},91..123,
 |{71},{71},
 |{71},1..50,
 |{71},92..123,
 |{72},{72},
 |{72},1..51,
 |{72},93..123,
 |{73},{73},
 |{73},1..52,
 |{73},94..123,
 |{74},{74},
 |{74},1..53,
 |{74},95..123,
 |{75},{75},
 |{75},1..54,
 |{75},96..123,
 |{76},{76},
 |{76},1..55,
 |{76},97..123,
 |{77},{77},
 |{77},1..56,
 |{77},98..123,
 |{78},{78},
 |{78},1..57,
 |{78},99..123,
 |{79},{79},
 |{79},1..58,
 |{79},100..123,
 |{80},{80},
 |{80},1..59,
 |{80},101..123,
 |{81},{81},
 |{81},1..60,
 |{81},102..123,
 |{82},{82},
 |{82},1..61,
 |{82},103..123,
 |{83},{83},
 |{83},1..62,
 |{83},104..123,
 |{84},{84},
 |{84},1..63,
 |{84},105..123,
 |{85},{85},
 |{85},1..64,
 |{85},106..123,
 |{86},{86},
 |{86},1..65,
 |{86},107..123,
 |{87},{87},
 |{87},1..66,
 |{87},108..123,
 |{88},{88},
 |{88},1..67,
 |{88},109..123,
 |{89},{89},
 |{89},1..68,
 |{89},110..123,
 |{90},{90},
 |{90},1..69,
 |{90},111..123,
 |{91},{91},
 |{91},1..70,
 |{91},112..123,
 |{92},{92},
 |{92},1..71,
 |{92},113..123,
 |{93},{93},
 |{93},1..72,
 |{93},114..123,
 |{94},{94},
 |{94},1..73,
 |{94},115..123,
 |{95},{95},
 |{95},1..74,
 |{95},116..123,
 |{96},{96},
 |{96},1..75,
 |{96},117..123,
 |{97},{97},
 |{97},1..76,
 |{97},118..123,
 |{98},{98},
 |{98},1..77,
 |{98},119..123,
 |{99},{99},
 |{99},1..78,
 |{99},120..123,
 |{100},{100},
 |{100},1..79,
 |{100},121..123,
 |{101},{101},
 |{101},1..80,
 |{101},122..123,
 |{102},{102},
 |{102},1..81,
 |{102},{123},
 |{103},{103},
 |{103},1..82,
 |{104},{104},
 |{104},2..83,
 |{105},{105},
 |{105},3..84,
 |{106},{106},
 |{106},4..85,
 |{107},{107},
 |{107},5..86,
 |{108},{108},
 |{108},6..87,
 |{109},{109},
 |{109},7..88,
 |{110},{110},
 |{110},8..89,
 |{111},{111},
 |{111},9..90,
 |{112},{112},
 |{112},10..91,
 |{113},{113},
 |{113},11..92,
 |{114},{114},
 |{114},12..93,
 |{115},{115},
 |{115},13..94,
 |{116},{116},
 |{116},14..95,
 |{117},{117},
 |{117},15..96,
 |{118},{118},
 |{118},16..97,
 |{119},{119},
 |{119},17..98,
 |{120},{120},
 |{120},18..99,
 |{121},{121},
 |{121},19..100,
 |{122},{122},
 |{122},20..101,
 |{123},{123},
 |{123},21..102 |];

t = 275;

indexes = [|
    0,42,
  | 0,112,
  | 1,10,
  | 1,37,
  | 1,87,
  | 1,91,
  | 1,117,
  | 2,19,
  | 3,9,
  | 3,15,
  | 4,14,
  | 4,18,
  | 4,21,
  | 4,32,
  | 4,34,
  | 4,64,
  | 4,82,
  | 4,84,
  | 4,85,
  | 4,88,
  | 5,40,
  | 5,58,
  | 5,60,
  | 5,110,
  | 6,58,
  | 6,99,
  | 7,26,
  | 7,29,
  | 7,43,
  | 7,118,
  | 8,52,
  | 8,64,
  | 8,70,
  | 8,96,
  | 10,15,
  | 10,22,
  | 10,30,
  | 10,33,
  | 10,50,
  | 10,57,
  | 10,66,
  | 10,72,
  | 10,80,
  | 10,109,
  | 10,112,
  | 11,18,
  | 11,19,
  | 11,49,
  | 11,85,
  | 12,18,
  | 12,28,
  | 12,44,
  | 12,76,
  | 12,81,
  | 13,17,
  | 13,47,
  | 13,68,
  | 13,82,
  | 14,18,
  | 14,20,
  | 14,21,
  | 14,64,
  | 14,68,
  | 14,76,
  | 14,82,
  | 14,84,
  | 14,96,
  | 14,103,
  | 14,114,
  | 15,22,
  | 15,30,
  | 15,50,
  | 15,63,
  | 15,80,
  | 15,94,
  | 15,97,
  | 15,112,
  | 16,70,
  | 17,18,
  | 17,19,
  | 17,28,
  | 17,36,
  | 17,40,
  | 17,47,
  | 17,68,
  | 17,74,
  | 17,82,
  | 17,98,
  | 17,110,
  | 18,19,
  | 18,34,
  | 18,49,
  | 18,82,
  | 18,84,
  | 18,85,
  | 18,108,
  | 19,36,
  | 19,49,
  | 19,74,
  | 19,82,
  | 19,85,
  | 19,110,
  | 20,64,
  | 20,96,
  | 20,114,
  | 21,32,
  | 21,52,
  | 21,64,
  | 22,30,
  | 22,31,
  | 22,33,
  | 22,38,
  | 22,62,
  | 22,66,
  | 22,80,
  | 22,105,
  | 23,37,
  | 24,52,
  | 24,64,
  | 25,69,
  | 25,85,
  | 26,42,
  | 26,109,
  | 26,112,
  | 26,118,
  | 27,115,
  | 28,102,
  | 28,106,
  | 28,120,
  | 29,118,
  | 30,80,
  | 32,34,
  | 32,88,
  | 33,37,
  | 33,38,
  | 33,62,
  | 33,66,
  | 33,68,
  | 33,95,
  | 33,96,
  | 33,105,
  | 33,114,
  | 33,122,
  | 34,69,
  | 34,85,
  | 35,57,
  | 35,89,
  | 35,90,
  | 35,107,
  | 35,109,
  | 36,74,
  | 36,110,
  | 37,53,
  | 37,120,
  | 38,62,
  | 38,70,
  | 38,71,
  | 38,75,
  | 38,83,
  | 38,96,
  | 38,105,
  | 38,114,
  | 39,106,
  | 40,43,
  | 40,47,
  | 40,54,
  | 40,58,
  | 40,60,
  | 40,89,
  | 40,106,
  | 40,109,
  | 40,110,
  | 40,118,
  | 41,110,
  | 42,50,
  | 42,112,
  | 43,58,
  | 43,92,
  | 43,118,
  | 45,70,
  | 46,55,
  | 46,70,
  | 47,54,
  | 47,66,
  | 47,68,
  | 47,82,
  | 47,109,
  | 47,110,
  | 47,118,
  | 48,69,
  | 48,85,
  | 49,85,
  | 50,63,
  | 50,112,
  | 51,98,
  | 52,64,
  | 53,76,
  | 53,86,
  | 53,96,
  | 53,119,
  | 54,109,
  | 54,118,
  | 56,91,
  | 57,77,
  | 57,93,
  | 57,95,
  | 58,60,
  | 58,73,
  | 58,92,
  | 58,110,
  | 58,111,
  | 58,118,
  | 59,108,
  | 60,110,
  | 61,95,
  | 61,96,
  | 61,103,
  | 61,104,
  | 61,113,
  | 62,105,
  | 63,94,
  | 63,97,
  | 64,70,
  | 64,96,
  | 64,114,
  | 65,70,
  | 66,68,
  | 66,72,
  | 66,109,
  | 66,112,
  | 66,114,
  | 66,122,
  | 67,76,
  | 68,82,
  | 68,90,
  | 68,109,
  | 68,114,
  | 68,120,
  | 68,122,
  | 69,85,
  | 70,75,
  | 70,83,
  | 70,96,
  | 72,109,
  | 72,112,
  | 73,92,
  | 74,110,
  | 75,83,
  | 75,96,
  | 76,120,
  | 78,106,
  | 79,108,
  | 82,84,
  | 82,114,
  | 83,96,
  | 85,115,
  | 89,98,
  | 89,101,
  | 89,116,
  | 90,95,
  | 90,98,
  | 90,103,
  | 91,106,
  | 91,109,
  | 91,120,
  | 92,111,
  | 95,121,
  | 96,114,
  | 98,108,
  | 100,103,
  | 103,108,
  | 109,112,
  | 109,118,
  | 112,118,
  | 114,122 |];

